% demand
num_movements = 36;
loading_factor = [1100, 1800, 1800, 1500, 850, 1300, 1000, 1650, 1200, 950, 1750, 1650, 1800, 850, 1450, 1450, 1650, 900, 1400, 1500, 1300, 1650, 1200, 1350, 1400, 1850, 1000, 1700, 1750, 1550, 1050, 1600, 1500, 1950, 1050, 1000];
pickup_time = [0, 0, 0, 0, 0, 0, 0, 0, 2, 2, 2, 3, 4, 4, 4, 5, 6, 6, 7, 7, 7, 7, 8, 8, 10, 10, 10, 10, 11, 11, 11, 13, 13, 13, 13, 13];
delivery_time = [2, 2, 2, 5, 4, 7, 4, 7, 3, 4, 4, 5, 9, 7, 5, 7, 9, 7, 8, 8, 8, 9, 9, 9, 13, 14, 14, 13, 13, 13, 14, 14, 14, 14, 14, 14];

% transporter definition
total_capacity = 11000;
num_decks = 4;
capacity = [3000, 3000, 1000, 4000];

% ways out of decks
num_ways_out = 2;
paths_out = array3d(decks, ways_out, decks, [
% ways out of deck d1
2, 4, 0, 0, 3, 4, 0, 0, 

% ways out of deck d2
4, 0, 0, 0, 0, 0, 0, 0,	

% ways out of deck d3
4, 0, 0, 0, 0, 0, 0, 0,	

% ways out of deck d4
0, 0, 0, 0,	0, 0, 0, 0,	

]);

